n = 50;
C = 6616;
w = [54,261,354,132,433,41,337,273,14,137,261,355,340,370,286,400,323,355,461,68,187,470,127,460,417,174,4,487,279,280,412,394,316,10,218,122,395,365,115,22,72,126,493,162,140,455,33,442,430,370];
p = [280,1315,1780,670,2175,215,1695,1375,80,695,1315,1785,1710,1860,1440,2010,1625,1785,2315,350,945,2360,645,2310,2095,880,30,2445,1405,1410,2070,1980,1590,60,1100,620,1985,1835,585,120,370,640,2475,820,710,2285,175,2220,2160,1860];
